c --- [ banner ] -------------------------------------------------------------
c 
c CaDiCaL Radically Simplified CDCL SAT Solver
c Copyright (c) 2016-2021 A. Biere, M. Fleury, N. Froleyks
c 
c Version 1.5.2 a5f15211db36c3956764e18194dd5bd63bf3b5e6
c g++ (GCC) 9.3.0 -Wall -Wextra -O3 -DNDEBUG
c Fri Oct 21 01:27:37 EDT 2022 Linux gra-login3 3.10.0-1160.66.1.el7.x86_64 x86_64
c 
c --- [ limit ] --------------------------------------------------------------
c 
c setting conflict limit to 200000 conflicts (due to '200000')
c 
c --- [ parsing input ] ------------------------------------------------------
c 
c reading DIMACS file from '33.cubes1021.adj'
c opening file to read '33.cubes1021.adj'
c found 'p cnf 6160 1595469' header
c parsed 1595469 clauses in 19.82 seconds process time
c closing file '33.cubes1021.adj'
c after reading 1457566735 bytes 1390.0 MB
c 
c --- [ options ] ------------------------------------------------------------
c 
c all options are set to their default value
c 
c --- [ solving ] ------------------------------------------------------------
c 
c time measured in process time since initialization
c 
c  seconds    reductions  redundant   irredundant
c          MB     restarts       trail       variables
c            level   conflicts       glue         remaining
c 
c * 19.83 1369  0 0   0    0    0  0% 0 1595422 2423 39%
c { 20.99 1425  0 0   0    0    0  0% 0 1595422 2423 39%
c i 21.81 1447 1062 0   0   12   10 35% 1 1595422 2413 39%
c i 23.53 1477 414 0   7   49   42 29% 52 1595422 2379 39%
c i 24.00 1479 273 0   9   75   61 27% 36 1595422 2378 39%
c i 24.85 1485 254 0  12   95   78 26% 47 1595422 2375 39%
c i 26.15 1491 200 0  21  171  128 25% 44 1595422 2374 39%
c i 26.15 1491 198 0  21  172  128 25% 44 1595422 2373 39%
c i 26.15 1491 196 0  21  174  129 26% 44 1595422 2372 39%
c i 26.24 1491 190 0  21  180  134 26% 43 1595422 2371 38%
c i 26.24 1491 189 0  21  181  134 26% 42 1595422 2370 38%
c i 26.24 1491 188 0  21  182  134 26% 42 1595422 2369 38%
c i 26.24 1491 187 0  21  183  134 26% 42 1595422 2368 38%
c i 26.24 1491 186 0  21  184  134 26% 42 1595422 2367 38%
c i 26.24 1491 185 0  21  185  134 26% 41 1595422 2366 38%
c i 26.24 1491 184 0  21  186  134 26% 41 1595422 2365 38%
c i 26.35 1492 181 0  21  190  137 26% 41 1595422 2364 38%
c i 26.39 1492 175 0  21  197  143 26% 39 1595422 2363 38%
c i 26.42 1492 174 0  21  198  143 26% 39 1595422 2362 38%
c i 26.42 1492 173 0  21  199  143 26% 39 1595422 2361 38%
c 
c  seconds     reductions  redundant    irredundant
c          MB      restarts       trail        variables
c             level   conflicts       glue          remaining
c 
c i 26.43 1492 172 0  21  200  143 26% 39 1595422 2360 38%
c i 26.43 1492 171 0  21  201  143 26% 39 1595422 2359 38%
c i 26.43 1492 170 0  21  202  143 26% 38 1595422 2358 38%
c i 26.44 1492 169 0  21  204  144 26% 38 1595422 2357 38%
c i 26.49 1492 167 0  21  207  146 26% 38 1595422 2356 38%
c i 26.55 1491 163 0  21  213  148 26% 38 1595422 2355 38%
c i 26.55 1491 163 0  21  214  148 26% 38 1595422 2354 38%
c i 26.70 1492 155 0  21  235  167 27% 38 1595422 2353 38%
c i 26.71 1492 154 0  21  236  167 27% 38 1595422 2352 38%
c i 26.71 1492 154 0  21  237  167 27% 38 1595422 2351 38%
c i 26.72 1492 153 0  21  238  167 27% 38 1595422 2350 38%
c i 26.72 1492 152 0  21  239  167 27% 38 1595422 2349 38%
c i 26.72 1492 151 0  21  241  168 27% 37 1595422 2348 38%
c i 26.90 1492 151 0  21  246  172 27% 37 1595422 2347 38%
c i 27.30 1493 145 0  26  285  210 27% 39 1595422 2346 38%
c - 31.02 1411 139 1  26  301  226 27% 38 249702 2346 38%
c i 31.38 1411 121 1  26  364  265 27% 33 249702 2345 38%
c i 31.39 1411 121 1  26  365  265 27% 33 249702 2344 38%
c i 31.40 1411 121 1  26  366  265 27% 33 249702 2343 38%
c i 31.54 1411 115 1  26  397  289 27% 33 249702 2342 38%
c 
c  seconds     reductions  redundant   irredundant
c          MB      restarts       trail       variables
c             level   conflicts       glue         remaining
c 
c i 31.55 1411 115 1  26  398  289 27% 33 249702 2341 38%
c i 31.57 1411 111 1  26  424  301 27% 32 249702 2340 38%
c i 31.64 1411 111 1  26  435  311 27% 32 249702 2339 38%
c i 31.64 1411 110 1  26  436  311 27% 32 249702 2338 38%
c i 31.64 1411 110 1  26  437  311 27% 32 249702 2337 38%
c i 31.64 1411 110 1  26  438  311 27% 32 249702 2336 38%
c i 31.64 1411 110 1  26  439  311 27% 31 249702 2335 38%
c i 31.64 1411 109 1  26  440  311 27% 31 249702 2334 38%
c i 31.68 1411 109 1  26  450  319 27% 32 249702 2333 38%
c i 31.69 1411 109 1  26  451  319 27% 31 249702 2332 38%
c i 31.70 1411 108 1  26  454  321 27% 32 249702 2331 38%
c i 31.71 1411 108 1  26  457  323 27% 32 249702 2330 38%
c i 31.74 1411 108 1  26  467  331 27% 32 249702 2329 38%
c i 31.79 1411 107 1  28  478  340 27% 32 249702 2328 38%
c i 31.82 1411 106 1  28  486  347 27% 32 249702 2327 38%
c i 31.82 1411 105 1  28  488  348 27% 32 249702 2326 38%
c i 31.82 1411 105 1  28  489  348 27% 32 249702 2325 38%
c i 31.86 1411 104 1  28  502  359 27% 32 249702 2324 38%
c i 31.92 1411 102 1  28  521  374 27% 31 249702 2323 38%
c i 31.96 1411 99 1  28  539  389 27% 31 249702 2322 38%
c 
c  seconds    reductions  redundant   irredundant
c          MB     restarts       trail       variables
c            level   conflicts       glue         remaining
c 
c i 32.04 1411 93 1  28  589  431 27% 30 249702 2321 38%
c i 32.04 1411 93 1  28  590  431 27% 30 249702 2320 38%
c i 32.04 1411 93 1  28  591  431 27% 30 249702 2319 38%
c i 32.04 1411 93 1  28  592  431 27% 30 249702 2318 38%
c i 32.04 1411 92 1  28  593  431 27% 29 249702 2317 38%
c i 32.04 1411 92 1  28  594  431 27% 29 249702 2316 38%
c i 32.04 1411 92 1  28  595  431 27% 29 249702 2315 38%
c i 32.05 1411 91 1  28  602  436 27% 29 249702 2314 38%
c i 32.40 1411 82 1  28  711  527 27% 27 249702 2313 38%
c i 32.72 1411 82 1  38  765  573 27% 28 249702 2289 37%
c i 32.76 1411 82 1  38  772  579 27% 28 249702 2279 37%
c i 32.95 1411 82 1  41  785  591 27% 28 249702 2267 37%
c i 33.06 1411 80 1  41  837  639 27% 28 249702 2266 37%
c i 33.19 1411 80 1  41  857  655 27% 28 249702 2265 37%
c i 33.25 1411 78 1  41  891  679 27% 28 249702 2264 37%
c i 33.27 1411 77 1  41  894  681 27% 28 249702 2263 37%
c i 33.29 1411 77 1  41  902  688 27% 28 249702 2262 37%
c i 33.30 1411 77 1  41  909  692 27% 28 249702 2261 37%
c i 33.30 1411 77 1  41  911  692 27% 28 249702 2260 37%
c i 33.30 1411 76 1  41  914  694 27% 28 249702 2259 37%
c 
c  seconds    reductions  redundant   irredundant
c          MB     restarts       trail       variables
c            level   conflicts       glue         remaining
c 
c i 33.31 1411 76 1  41  926  704 27% 28 249702 2258 37%
c } 33.41 1411 73 1  41 1003  751 28% 27 249702 2258 37%
c [ 33.41 1411  0 1  41 1003  751  0% 0 249702 2258 37%
c O 33.41 1411  4 1  41 1004  752 15% 1 249702 2258 37%
c i 33.42 1411  6 1  41 1025  755 17% 6 249702 2248 36%
c - 34.07 1504 21 2  41 1140  751 30% 17 248554 2246 36%
c i 34.25 1504 21 2  41 1240  805 31% 17 248554 2245 36%
c i 34.36 1504 20 2  41 1379  869 31% 17 248554 2244 36%
c i 34.39 1504 20 2  41 1390  877 31% 17 248554 2243 36%
c i 34.52 1504 21 2  41 1583  982 31% 18 248554 2242 36%
c i 34.65 1504 21 2  41 1831 1128 31% 18 248554 2241 36%
c i 34.78 1504 22 2  41 2018 1243 31% 19 248554 2240 36%
c i 34.79 1504 22 2  41 2025 1247 31% 19 248554 2239 36%
c i 34.85 1504 22 2  42 2107 1300 31% 19 248554 2238 36%
c - 35.28 1503 23 3  42 2397 1125 31% 19 248532 2238 36%
c ] 35.95 1503 22 3  42 3003 1514 48% 19 248532 2238 36%
c { 35.95 1503 73 3  42 3003 1514 76% 27 248532 2238 36%
c F 35.98 1455 73 3  42 3005 1516 76% 27 248532 2238 36%
c i 36.06 1455 72 3  42 3017 1526 75% 27 248532 2237 36%
c i 36.08 1455 72 3  42 3027 1534 75% 27 248532 2236 36%
c 
c  seconds    reductions  redundant   irredundant
c          MB     restarts       trail       variables
c            level   conflicts       glue         remaining
c 
c i 36.12 1455 72 3  42 3040 1546 75% 27 248532 2235 36%
c i 36.33 1455 71 3  51 3116 1603 73% 27 248532 2234 36%
c i 36.35 1455 70 3  51 3135 1621 72% 27 248532 2233 36%
c i 36.54 1455 62 3  51 3435 1850 67% 25 248532 2232 36%
c i 36.73 1455 51 3  51 3931 2218 63% 22 248532 2231 36%
c - 37.08 1365 50 4  66 4071 1794 62% 23 248511 2231 36%
c d 37.83 1365 40 4  66 5001 2365 58% 20 236541 2218 36%
c 2 37.89 1365 40 4  66 5001 3192 58% 20 236534 2214 36%
c p 43.06 1365 40 4  66 5001 6611 58% 20 236534 2161 35%
c d 43.40 1365 40 4  66 5001 6204 58% 20 236363 2159 35%
c # 43.99 1365 35 4  68 6009 6905 56% 19 236363 2159 35%
c - 44.44 1365 34 5  68 6164 2289 56% 19 236363 2159 35%
c } 45.11 1365 32 5 102 7006 2837 54% 18 236363 2159 35%
c [ 45.11 1365 22 5 102 7006 2837 48% 19 236363 2159 35%
c - 45.87 1365 22 6 103 8636 2627 49% 20 236363 2159 35%
c ] 46.37 1365 23 6 104 9435 3203 48% 20 236363 2159 35%
c 1 46.37 1365 23 6 104 9435 3203 48% 20 236363 2159 35%
c 
c --- [ writing output ] -----------------------------------------------------
c 
c writing simplified CNF to DIMACS file 'simp/33.cubes1021.adj.simp1'
c * 46.37 1365 23 6 104 9435 3203 48% 20 236363 2159 35%
c opening file to write 'simp/33.cubes1021.adj.simp1'
c writing 'p cnf 6160 236363' header
c closing file 'simp/33.cubes1021.adj.simp1'
c after writing 92044845 bytes 87.8 MB
c wrote 236363 clauses in 0.70 seconds process time
c 
c --- [ writing extension ] --------------------------------------------------
c 
c writing extension stack to 'simp/33.cubes1021.adj.ext1'
c opening file to write 'simp/33.cubes1021.adj.ext1'
c closing file 'simp/33.cubes1021.adj.ext1'
c after writing 13097 bytes 0.0 MB
c wrote 872 witnesses in 0.00 seconds process time
c 
c --- [ result ] -------------------------------------------------------------
c 
s SATISFIABLE
c 
c --- [ run-time profiling ] -------------------------------------------------
c 
c process time taken by individual solving procedures
c (percentage relative to process time for solving)
c 
c        20.61   77.65% search
c        19.82   74.68% parse
c        15.64   58.92% unstable
c         5.93   22.34% simplify
c         5.17   19.48% probe
c         3.80   14.33% stable
c         1.17    4.40% lucky
c         0.04    0.16% ternary
c   =================================
c        26.55   56.40% solve
c 
c last line shows process time for solving
c (percentage relative to total process time)
c 
c --- [ statistics ] ---------------------------------------------------------
c 
c chronological:              1895        20.08 %  of conflicts
c conflicts:                  9435       355.42    per second
c decisions:                 29530      1112.42    per second
c fixed:                       842        13.67 %  of all variables
c learned:                    9212        97.64 %  per conflict
c learned_lits:            1671150       100.00 %  learned literals
c minimized:                     0         0.00 %  learned literals
c shrunken:                1145613        68.55 %  learned literals
c minishrunken:             102451         6.13 %  learned literals
c propagations:            1468197         0.06 M  per second
c reduced:                    3158        33.47 %  per conflict
c rephased:                      3      3145.00    interval
c restarts:                    104        90.72    interval
c stabilizing:                   2        46.94 %  of conflicts
c substituted:                  15         0.24 %  of all variables
c subsumed:                   2821         0.08 %  of all clauses
c ternary:                     828         0.49 %  of resolved
c weakened:                     30         2.00    average size
c 
c seconds are measured in process time for solving
c 
c --- [ resources ] ----------------------------------------------------------
c 
c total process time since initialization:        47.07    seconds
c total real time since initialization:           47.78    seconds
c maximum resident set size of process:         1595.36    MB
c 
c --- [ shutting down ] ------------------------------------------------------
c 
c exit 10
WARNING! DIMACS header mismatch: wrong number of variables.
============================[ Problem Statistics ]=============================
|                                                                             |
|  Number of variables:          6120                                         |
|  Number of clauses:          236365                                         |
|  Parse time:                   1.22 s                                       |
|  Simplification time:          0.02 s                                       |
|                                                                             |
============================[ Search Statistics ]====================================================
| Conflicts |          ORIGINAL         |          LEARNT          | Num Sols |      SUBGRAPHS      |
|           |    Vars  Clauses Literals |    Limit  Clauses Lit/Cl |          | Canonical Noncanon. |
=====================================================================================================
|       100 |    6026   236365 20242000 |     2000      100     27 |        0 |        25         0 |
|       255 |    6026   236370 20242059 |     2000      255     41 |        0 |        43         5 |
|       840 |    6026   236730 20248149 |     2000      840     26 |        0 |       171       365 |
|      1956 |    6026   237509 20261794 |     2000     1956     20 |        0 |       384      1144 |
|      4246 |    6026   239293 20290622 |     3604     3250     15 |        0 |       857      2928 |
|      6761 |    6026   241049 20316893 |     5002     3963     13 |        0 |      1233      4684 |
|      9981 |    6026   243130 20348845 |     6302     4683     13 |        0 |      1898      6765 |
|     17970 |    6026   249411 20436897 |     8781     5751     11 |        0 |      2888     13046 |
|     22602 |    6026   251481 20464574 |    10004     6006     30 |        0 |      3132     15116 |
|     26526 |    6026   251561 20467055 |    10004     9930     60 |        0 |      3184     15196 |
|     47952 |    6013   267221 20657987 |    14805     7757      9 |        0 |      4782     30856 |
|     77299 |    6013   287919 20916571 |    18408    13107     20 |        0 |      6629     51554 |
=====================================================================================================
Number of solutions   : 0
Canonical subgraphs   : 7434           (114 /sec)
          order  3    : 1              (200000 /sec)
          order  4    : 1              (500000 /sec)
          order  5    : 1              (200000 /sec)
          order  6    : 1              (55556 /sec)
          order  7    : 2              (10695 /sec)
          order  8    : 4              (2065 /sec)
          order  9    : 14             (552 /sec)
          order 10    : 66             (285 /sec)
          order 11    : 259            (209 /sec)
          order 12    : 1069           (208 /sec)
          order 13    : 4514           (155 /sec)
          order 14    : 1123           (65 /sec)
          order 15    : 320            (32 /sec)
          order 16    : 55             (25 /sec)
          order 17    : 4              (33 /sec)
          order 18    : 0              (-nan /sec)
          order 19    : 0              (-nan /sec)
          order 20    : 0              (-nan /sec)
          order 21    : 0              (-nan /sec)
          order 22    : 0              (-nan /sec)
Noncanonical subgraphs: 64029          (817 /sec)
          order  3    : 0              (-nan /sec)
          order  4    : 0              (-nan /sec)
          order  5    : 0              (-nan /sec)
          order  6    : 0              (-nan /sec)
          order  7    : 0              (-nan /sec)
          order  8    : 0              (-nan /sec)
          order  9    : 0              (-nan /sec)
          order 10    : 0              (-nan /sec)
          order 11    : 0              (-nan /sec)
          order 12    : 0              (-nan /sec)
          order 13    : 6726           (8290 /sec)
          order 14    : 51420          (803 /sec)
          order 15    : 5352           (476 /sec)
          order 16    : 475            (246 /sec)
          order 17    : 56             (189 /sec)
          order 18    : 0              (-nan /sec)
          order 19    : 0              (-nan /sec)
          order 20    : 0              (-nan /sec)
          order 21    : 0              (-nan /sec)
Canonicity checking   : 65.4018 s
Noncanonicity checking: 78.3314 s
Total canonicity time : 143.733 s
database reductions   : 15
restarts              : 255
conflicts             : 100587         (549 /sec)
decisions             : 198349         (0.00 % random) (1082 /sec)
propagations          : 11612586       (63347 /sec)
conflict literals     : 3048961        (57.03 % deleted)
actual reward         : 0.059416
Memory used           : 153.00 MB
CPU time              : 183.318 s

UNSATISFIABLE
